3 16 1 10
13 6 8 18 12 11 4 17 4 5 15 5 16 20 20 16 
6.81 1.51 4.35 3.76 0.72 4.02 3.91 1.38 7.42 2.39 6.3 2.15 3.88 7.1 3.64 4.03 
4 4 4 4 4 4 4 4 4 4 4 4 4 4 4 4 
1.74 4.58 1.42 2.74 0.59 4.88 7.14 0.96 5.12 0.31 1.15 8 3.31 2.14 0.39 2.06 
1 1 1 1 1 1 1 1 1 1 1 1 1 1 1 1 
1 1 1 1 1 1 1 1 1 1 1 1 1 1 1 1 
1 1 1 1 1 1 1 1 1 1 1 1 1 1 1 1 
0.01 0.01 0.01 0.01 0.01 0.01 0.01 0.01 0.01 0.01 0.01 0.01 0.01 0.01 0.01 0.01 
0.02 0.02 0.02 0.02 0.02 0.02 0.02 0.02 0.02 0.02 0.02 0.02 0.02 0.02 0.02 0.02 
1 1 1 1 1 1 1 1 1 1 1 1 1 1 1 1 
